NAME : LPS-n28-m206
COMMENT : (Lartu-Peter-Santi Plot, instance 10206 out of 39200. 28 customers.)
TYPE : CVRP
DIMENSION : 28
EDGE_WEIGHT_TYPE : EUC_2D
CAPACITY : 144
NODE_COORD_SECTION
 1 93 32
 2 81 10
 3 66 74
 4 85 63
 5 14 0
 6 99 84
 7 46 16
 8 52 27
 9 65 32
 10 65 84
 11 3 22
 12 26 50
 13 67 70
 14 91 1
 15 33 8
 16 13 56
 17 43 47
 18 34 62
 19 29 80
 20 7 38
 21 27 22
 22 81 89
 23 81 42
 24 96 29
 25 57 56
 26 91 14
 27 52 48
 28 86 5
DEMAND_SECTION
1 0
2 11
3 90
4 64
5 129
6 34
7 28
8 20
9 19
10 73
11 73
12 25
13 136
14 103
15 97
16 114
17 100
18 13
19 143
20 16
21 26
22 133
23 83
24 93
25 38
26 4
27 142
28 50
DEPOT_SECTION
 1
 -1
EOF
